42 27 
23 95 
46 26 
93 94 
15 9 
59 28 
8 82 
80 5 
64 44 
60 3 
44 41 
12 48 
37 40 
73 62 
46 36 
93 89 
15 69 
36 62 
95 29 
8 10 
38 67 
38 98 
49 70 
3 14 
14 63 
69 11 
5 81 
11 94 
73 84 
8 19 
72 54 
60 88 
23 96 
2 18 
78 10 
80 68 
77 19 
67 79 
41 70 
45 8 
86 14 
19 91 
47 30 
85 20 
66 46 
91 39 
0 52 
79 23 
0 81 
93 30 
